Version identifier: 22.1.0.0 | 2022-03-09 | 1a383f8ce
CPXPARAM_Threads                                 1
CPXPARAM_MIP_Strategy_VariableSelect             3
CPXPARAM_TimeLimit                               600
Tried aggregator 1 time.
Reduced MIP has 1819 rows, 8700 columns, and 67531 nonzeros.
Reduced MIP has 7200 binaries, 1500 generals, 0 SOSs, and 0 indicators.
Presolve time = 0.03 sec. (26.47 ticks)
Found incumbent of value 1.583000 after 0.09 sec. (66.87 ticks)
Probing time = 0.01 sec. (4.06 ticks)
Tried aggregator 1 time.
Detecting symmetries...
Reduced MIP has 1819 rows, 8700 columns, and 67531 nonzeros.
Reduced MIP has 7200 binaries, 1500 generals, 0 SOSs, and 0 indicators.
Presolve time = 0.04 sec. (32.93 ticks)
Probing time = 0.01 sec. (4.06 ticks)
Clique table members: 303.
MIP emphasis: balance optimality and feasibility.
MIP search method: dynamic search.
Parallel mode: none, using 1 thread.
Root relaxation solution time = 1.33 sec. (1403.06 ticks)

        Nodes                                         Cuts/
   Node  Left     Objective  IInf  Best Integer    Best Bound    ItCnt     Gap

*     0+    0                            1.5830        0.0000           100.00%
      0     0        0.0000  1725        1.5830        0.0000     4909  100.00%
      0     0        0.0000  1486        1.5830   ZeroHalf: 8    10132  100.00%
      0     0        0.0000  1431        1.5830   ZeroHalf: 7    10372  100.00%
      0     0        0.0000  1738        1.5830 ZeroHalf: 178    16877  100.00%
*     0+    0                            0.4150        0.0000           100.00%
*     0+    0                            0.3740        0.0000           100.00%
*     0+    0                            0.3580        0.0000           100.00%
      0     0  -1.00000e+75     0        0.3580        0.0000    16877  100.00%
      0     0        0.0000  1638        0.3580   ZeroHalf: 4    22597  100.00%
      0     0        0.0000  1707        0.3580  ZeroHalf: 21    28994  100.00%
Detecting symmetries...
Heuristic still looking.
*     0+    0                            0.3520        0.0000           100.00%
*     0+    0                            0.2890        0.0000           100.00%
*     0+    0                            0.2850        0.0000           100.00%
      0     0  -1.00000e+75     0        0.2850        0.0000    28994  100.00%
Detecting symmetries...
      0     2        0.0000  1317        0.2850        0.0000    28994  100.00%
Elapsed time = 68.76 sec. (73647.17 ticks, tree = 0.01 MB, solutions = 7)
      1     3        0.0010  1673        0.2850        0.0000    38830  100.00%
      2     4        0.0000  1665        0.2850        0.0000    44839  100.00%
      3     5        0.0000  1719        0.2850        0.0000    51787  100.00%
      4     6        0.0000  1719        0.2850        0.0000    57615  100.00%
      5     7        0.0000  1690        0.2850        0.0000    59060  100.00%
      6     8        0.0000  1695        0.2850        0.0000    59883  100.00%
      7     9       -0.0000  1706        0.2850        0.0000    59924  100.00%
      8    10       -0.0000  1710        0.2850        0.0000    60804  100.00%
      9    11       -0.0000  1697        0.2850        0.0000    60812  100.00%
     12    14        0.0000  1771        0.2850        0.0000    62479  100.00%
Elapsed time = 85.03 sec. (91493.79 ticks, tree = 0.06 MB, solutions = 7)
     15    17        0.0000  1768        0.2850        0.0000    66491  100.00%
     17    19       -0.0000  1642        0.2850        0.0000    69236  100.00%
     20    22       -0.0000  1674        0.2850        0.0000    70138  100.00%
     22    24        0.0000  1638        0.2850        0.0000    71597  100.00%
     24    26        0.0000  1708        0.2850        0.0000    80670  100.00%
     27    29       -0.0000  1399        0.2850        0.0000    86525  100.00%
     28    30        0.0000  1628        0.2850        0.0000    91879  100.00%
     31    33        0.0000  1551        0.2850        0.0000    93796  100.00%
     33    35        0.0000  1483        0.2850        0.0000    96473  100.00%
     36    38        0.0000  1569        0.2850        0.0000   104470  100.00%
Elapsed time = 101.58 sec. (110025.47 ticks, tree = 0.13 MB, solutions = 7)
     39    41        0.0000  1584        0.2850        0.0000   111291  100.00%
     41    43        0.0000  1610        0.2850        0.0000   116081  100.00%
     43    45        0.0000  1494        0.2850        0.0000   118702  100.00%
     45    47       -0.0000  1369        0.2850        0.0000   120135  100.00%
     47    49        0.0010  1601        0.2850        0.0000   126028  100.00%
     50    52        0.0000  1609        0.2850        0.0000   137933  100.00%
     52    54        0.0000  1558        0.2850        0.0000   138891  100.00%
     54    56        0.0000  1392        0.2850        0.0000   141482  100.00%
     55    57       -0.0000  1277        0.2850        0.0000   148545  100.00%
     57    59        0.0000  1221        0.2850        0.0000   150318  100.00%
Elapsed time = 118.11 sec. (127891.63 ticks, tree = 0.19 MB, solutions = 7)
     59    61        0.0000  1430        0.2850        0.0000   159187  100.00%
     60    62        0.0000  1383        0.2850        0.0000   160425  100.00%
     62    64       -0.0000  1256        0.2850        0.0000   165582  100.00%
     63    65        0.0001  1460        0.2850        0.0000   168066  100.00%
     66    68        0.0001  1339        0.2850        0.0000   197448  100.00%
     67    69        0.0000  1115        0.2850        0.0000   206785  100.00%
     69    71        0.0005  1487        0.2850        0.0000   223530  100.00%
     70    72        0.0000  1125        0.2850        0.0000   225189  100.00%
     71    73        0.0000  1366        0.2850        0.0000   230897  100.00%
     73    75        0.0000  1255        0.2850        0.0000   233215  100.00%
Elapsed time = 151.40 sec. (162549.52 ticks, tree = 0.24 MB, solutions = 7)
     74    76        0.0001  1307        0.2850        0.0000   244661  100.00%
     76    78        0.0000  1350        0.2850        0.0000   256879  100.00%
     77    79        0.0001  1427        0.2850        0.0000   267923  100.00%
     79    81       -0.0000  1316        0.2850        0.0000   269347  100.00%
     80    82        0.0001  1419        0.2850        0.0000   272179  100.00%
     82    84        0.0001  1464        0.2850        0.0000   274630  100.00%
     85    87        0.0000  1281        0.2850        0.0000   276158  100.00%
     86    88        0.0000  1426        0.2850        0.0000   278910  100.00%
     89    91       -0.0000  1005        0.2850        0.0000   284001  100.00%
     90    92       -0.0000   985        0.2850        0.0000   285327  100.00%
Elapsed time = 175.02 sec. (187933.22 ticks, tree = 0.29 MB, solutions = 7)
     93    95        0.0000   973        0.2850        0.0000   290183  100.00%
     95    97       -0.0000   964        0.2850        0.0000   293914  100.00%
     96    98        0.0000   870        0.2850        0.0000   298649  100.00%
     97    99        0.0000  1379        0.2850        0.0000   310919  100.00%
     98   100        0.0000   996        0.2850        0.0000   313643  100.00%
     99   101        0.0001  1366        0.2850        0.0000   323320  100.00%
    100   102       -0.0000   972        0.2850        0.0000   326123  100.00%
    102   104        0.0001  1340        0.2850        0.0000   331146  100.00%
    104   106        0.0010  1265        0.2850        0.0000   339126  100.00%
    105   107        0.0010  1300        0.2850        0.0000   347249  100.00%
Elapsed time = 193.81 sec. (208345.76 ticks, tree = 0.37 MB, solutions = 7)
    108   110        0.0010  1360        0.2850        0.0000   349829  100.00%
    110   112        0.0010  1263        0.2850        0.0000   351708  100.00%
    112   114        0.0010  1240        0.2850        0.0000   353515  100.00%
    115   117        0.0010  1260        0.2850        0.0000   355197  100.00%
    117   119        0.0010  1259        0.2850        0.0000   357658  100.00%
    119   121        0.0010  1275        0.2850        0.0000   359405  100.00%
    120   122        0.0010  1265        0.2850        0.0000   359789  100.00%
    122   124        0.0010  1268        0.2850        0.0000   361238  100.00%
    125   127        0.0010  1313        0.2850        0.0000   363973  100.00%
    127   129        0.0011  1370        0.2850        0.0000   367233  100.00%
Elapsed time = 225.60 sec. (240993.10 ticks, tree = 0.43 MB, solutions = 7)
    130   132        0.0010  1264        0.2850        0.0000   368522  100.00%
    132   134        0.0020  1371        0.2850        0.0000   371517  100.00%
    133   135        0.0011  1401        0.2850        0.0000   373612  100.00%
    135   137        0.0010  1366        0.2850        0.0000   375945  100.00%
    137   139        0.0011  1336        0.2850        0.0000   378242  100.00%
    139   141        0.0010  1333        0.2850        0.0000   380335  100.00%
    141   143        0.0011  1298        0.2850        0.0000   383610  100.00%
    143   145        0.0010  1326        0.2850        0.0000   386126  100.00%
    145   147        0.0010  1268        0.2850        0.0000   386792  100.00%
    147   149        0.0015  1223        0.2850        0.0000   390275  100.00%
Elapsed time = 237.82 sec. (255343.48 ticks, tree = 0.51 MB, solutions = 7)
    149   151        0.0015  1224        0.2850        0.0000   391991  100.00%
    152   154        0.0015  1199        0.2850        0.0000   393485  100.00%
    153   155        0.0015  1378        0.2850        0.0000   395604  100.00%
    155   157        0.0015  1165        0.2850        0.0000   397427  100.00%
    157   159        0.0015  1224        0.2850        0.0000   399753  100.00%
    158   160        0.0016  1298        0.2850        0.0000   402992  100.00%
    161   163        0.0015  1263        0.2850        0.0000   410292  100.00%
    162   164        0.0015  1296        0.2850        0.0000   415809  100.00%
    164   166        0.0016  1332        0.2850        0.0000   418711  100.00%
    166   168        0.0015  1285        0.2850        0.0000   420670  100.00%
Elapsed time = 248.87 sec. (268296.07 ticks, tree = 0.57 MB, solutions = 7)
    169   171        0.0015  1215        0.2850        0.0000   422141  100.00%
    170   172        0.0017  1307        0.2850        0.0000   424203  100.00%
    172   174        0.0016  1302        0.2850        0.0000   426216  100.00%
    174   176        0.0015  1190        0.2850        0.0000   428090  100.00%
    176   178        0.0015  1186        0.2850        0.0000   430586  100.00%
    178   180        0.0015  1188        0.2850        0.0000   433015  100.00%
    179   181        0.0018  1387        0.2850        0.0000   435372  100.00%
    181   183        0.0015  1167        0.2850        0.0000   438332  100.00%
    183   185        0.0016  1281        0.2850        0.0000   441374  100.00%
    189   191        0.0018  1374        0.2850        0.0000   464009  100.00%
Elapsed time = 263.27 sec. (285085.97 ticks, tree = 0.65 MB, solutions = 7)
    192   194        0.0020  1296        0.2850        0.0000   474247  100.00%
    198   200        0.0021  1241        0.2850        0.0000   481308  100.00%
    200   202        0.0020  1120        0.2850        0.0000   483151  100.00%
    203   205        0.0020  1093        0.2850        0.0000   493920  100.00%
    209   211        0.0020  1212        0.2850        0.0000   500201  100.00%
    216   218        0.0025  1321        0.2850        0.0000   507735  100.00%
    218   220        0.0020   871        0.2850        0.0000   526145  100.00%
    222   224        0.0030  1250        0.2850        0.0000   538189  100.00%
    227   229        0.0028  1319        0.2850        0.0000   552435  100.00%
    231   233        0.0031  1201        0.2850        0.0000   570181  100.00%
Elapsed time = 307.20 sec. (334655.35 ticks, tree = 0.78 MB, solutions = 7)
    239   241        0.0031  1201        0.2850        0.0000   576792  100.00%
    246   248        0.0031  1215        0.2850        0.0000   584297  100.00%
    255   257        0.0031  1197        0.2850        0.0000   590964  100.00%
    262   264        0.0032  1103        0.2850        0.0000   600050  100.00%
    270   272        0.0032  1106        0.2850        0.0000   608249  100.00%
    276   278        0.0037  1167        0.2850        0.0000   616729  100.00%
    283   285        0.0050  1365        0.2850        0.0000   625861  100.00%
    289   291        0.0045  1020        0.2850        0.0000   634912  100.00%
    296   298        0.0046  1073        0.2850        0.0000   643836  100.00%
*   300+  300                            0.1850        0.0000           100.00%
    300   302        0.0049  1262        0.1850        0.0000   650943  100.00%
Elapsed time = 348.22 sec. (380943.77 ticks, tree = 1.03 MB, solutions = 8)
    306   308        0.0051  1172        0.1850        0.0000   660116  100.00%
    313   315        0.0046  1074        0.1850        0.0000   669440  100.00%
    319   321        0.0046  1055        0.1850        0.0000   677718  100.00%
    325   327        0.0045  1070        0.1850        0.0000   686680  100.00%
    330   332        0.0051  1139        0.1850        0.0000   694757  100.00%
    336   338        0.0046  1072        0.1850        0.0000   704208  100.00%
    343   345        0.0046  1080        0.1850        0.0000   712355  100.00%
    350   352        0.0046  1052        0.1850        0.0000   722740  100.00%
    356   358        0.0049  1222        0.1850        0.0000   733365  100.00%
    363   365        0.0050  1141        0.1850        0.0000   741814  100.00%
Elapsed time = 398.81 sec. (436727.76 ticks, tree = 1.24 MB, solutions = 8)
    371   373        0.0051  1230        0.1850        0.0000   750496  100.00%
    378   380        0.0062  1201        0.1850        0.0000   759352  100.00%
    380   382        0.0064  1204        0.1850        0.0000   762250  100.00%
    388   390        0.0076  1287        0.1850        0.0000   770613  100.00%
    394   396        0.0070  1202        0.1850        0.0000   778721  100.00%
    400   402        0.0080  1180        0.1850        0.0000   783185  100.00%
    412   414        0.0083  1195        0.1850        0.0000   789732  100.00%
    421   423        0.0080  1123        0.1850        0.0000   796320  100.00%
    428   430        0.0095  1143        0.1850        0.0000   803826  100.00%
    430   432        0.0083  1141        0.1850        0.0000   804717  100.00%
Elapsed time = 442.65 sec. (484622.15 ticks, tree = 1.46 MB, solutions = 8)
    439   441        0.0097  1087        0.1850        0.0000   812217  100.00%
    448   450        0.0100  1102        0.1850        0.0000   820469  100.00%
    458   460        0.0105  1054        0.1850        0.0000   828116  100.00%
    467   469        0.0114   997        0.1850        0.0000   835216  100.00%
    474   476        0.0126  1047        0.1850        0.0000   842220  100.00%
*   478+  478                            0.1410        0.0000           100.00%
*   478+  478                            0.1380        0.0000           100.00%
*   479+  479                            0.0940        0.0000           100.00%
    479   481        0.0000  1450        0.0940        0.0000   859046  100.00%
*   480+  480                            0.0810        0.0000           100.00%
*   480+  480                            0.0790        0.0000           100.00%
*   480+  480                            0.0760        0.0000           100.00%
*   480+  480                            0.0730        0.0000           100.00%
*   480+  480                            0.0720        0.0000           100.00%
    480   482        0.0000  1397        0.0720        0.0000   862572  100.00%
    481   483        0.0001  1334        0.0720        0.0000   866712  100.00%
*   482+  482                            0.0580        0.0000           100.00%
*   482+  482                            0.0570        0.0000           100.00%
    483   485        0.0000  1334        0.0570        0.0000   873871  100.00%
    491   493        0.0000  1321        0.0570        0.0000   879788  100.00%
Elapsed time = 567.32 sec. (599816.69 ticks, tree = 1.67 MB, solutions = 18)
    498   500        0.0001  1279        0.0570        0.0000   885645  100.00%
Starting limited solution polishing.
*   500+  500                            0.0540        0.0000           100.00%
    504   506        0.0001  1290        0.0540        0.0000   891703  100.00%
    510   512        0.0001  1302        0.0540        0.0000   898010  100.00%
    516   518        0.0001  1297        0.0540        0.0000   904483  100.00%
    523   525        0.0001  1286        0.0540        0.0000   910592  100.00%
    529   531        0.0010  1249        0.0540        0.0000   917268  100.00%

Zero-half cuts applied:  24

Root node processing (before b&c):
  Real time             =   68.73 sec. (73628.31 ticks)
Sequential b&c:
  Real time             =  531.28 sec. (562388.60 ticks)
                          ------------
Total (root+branch&cut) =  600.01 sec. (636016.91 ticks)
Primal number of violations:	0.054
Dual number of violations:	0
Status:	Feasible
Time:	599.95
Sequence:
	17
	0
	15
	7
	0
	11
	5
	7
	10
	5
	12
	5
	15
	2
	15
	5
	12
	15
	0
	15
	8
	10
	5
	16
	2
	15
	8
	15
	1
	2
	15
	0
	15
	6
	2
	15
	5
	10
	6
	10
	7
	15
	0
	8
	10
	6
	2
	15
	5
	13
	4
	15
	13
	5
	15
	3
	15
	5
	10
	5
	12
	10
	5
	10
	8
	10
	4
	18
	10
	0
	15
	7
	1
	15
	5
	10
	2
	15
	5
	13
	4
	15
	0
	15
	5
	3
	15
	5
	10
	5
	12
	15
	0
	8
	10
	4
	15
	0
	10
	8
	15
	10
	4
	18
	0
	15
	10
	4
	18
	0
	10
	7
	10
	5
	3
	15
	5
	10
	5
	17
	0
	15
	8
	10
	4
	18
	10
	5
	18
	11
	2
	15
	0
	0
	10
	7
	15
	1
	5
	10
	7
	15
	0
	14
	15
	5
	2
	10
	6
	7
	10
	15
	8
	1
	15
	7
	10
	5
	9
	10
	15
	15
	0
	9
	10
	7
	15
	0
	17
	0
	15
	7
	10
	6
	0
	15
	7
	10
	6
	18
	2
	15
	7
	14
	5
	15
	2
	15
	5
	13
	4
	2
	15
	5
	13
	4
	15
	10
	8
	16
	10
	2
	15
	5
	14
	15
	7
	10
	0
	13
	4
	15
	2
	18
	0
	15
	3
	15
	8
	0
	15
	3
	15
	5
	10
	0
	7
	4
	10
	8
	15
	0
	17
	0
	10
	7
	10
	5
	12
	5
	10
	7
	15
	0
	17
	5
	10
	7
	10
	6
	10
	7
	10
	5
	13
	4
	15
	2
	15
	0
	10
	8
	15
	1
	15
	7
	0
	10
	5
	15
	12
	5
	15
	0
	7
	4
	0
	15
	5
	10
	6
	7
	10
	5
	13
	4
	7
	10
	0
	18
	4
	10
	7
	0
	0
	10
	7
	11
	5
	18
